networks/zoo_34_272/zoo_34_272.sol
<?xml version = "1.0" encoding="UTF-8" standalone="yes"?>
<CPLEXSolution version="1.2">
 <header
   problemName="networks/zoo_34_272/zoo_34_272.lp"
   solutionName="incumbent"
   solutionIndex="-1"
   objectiveValue="35"
   solutionTypeValue="3"
   solutionTypeString="primal"
   solutionStatusValue="101"
   solutionStatusString="integer optimal solution"
   solutionMethodString="mip"
   primalFeasible="1"
   dualFeasible="1"
   MIPNodes="1202"
   MIPIterations="42589"
   writeLevel="3"/>
 <quality
   epInt="1.0000000000000001e-05"
   epRHS="9.9999999999999995e-07"
   maxIntInfeas="0"
   maxPrimalInfeas="0"
   maxX="3"
   maxSlack="9"/>
 <variables>
  <variable name="Y(13,14)" index="421" value="1"/>
  <variable name="Y(15,16)" index="491" value="1"/>
  <variable name="Y(24,9)" index="790" value="1"/>
  <variable name="Y(28,13)" index="930" value="1"/>
  <variable name="Y(33,1)" index="1088" value="1"/>
  <variable name="Y(48,17)" index="1614" value="1"/>
  <variable name="Y(55,8)" index="1843" value="1"/>
  <variable name="Y(66,10)" index="2219" value="1"/>
  <variable name="Y(76,5)" index="2554" value="1"/>
  <variable name="Y(79,5)" index="2656" value="1"/>
  <variable name="Y(106,10)" index="3579" value="1"/>
  <variable name="Y(108,6)" index="3643" value="1"/>
  <variable name="Y(111,6)" index="3745" value="1"/>
  <variable name="Y(122,11)" index="4124" value="1"/>
  <variable name="Y(130,2)" index="4387" value="1"/>
  <variable name="Y(134,6)" index="4527" value="1"/>
  <variable name="Y(149,10)" index="5041" value="1"/>
  <variable name="Y(167,10)" index="5653" value="1"/>
  <variable name="Y(168,11)" index="5688" value="1"/>
  <variable name="Y(179,13)" index="6064" value="1"/>
  <variable name="Y(191,10)" index="6469" value="1"/>
  <variable name="Y(196,4)" index="6633" value="1"/>
  <variable name="Y(197,5)" index="6668" value="1"/>
  <variable name="Y(199,7)" index="6738" value="1"/>
  <variable name="Y(204,13)" index="6914" value="1"/>
  <variable name="Y(206,13)" index="6982" value="1"/>
  <variable name="Y(216,13)" index="7322" value="1"/>
  <variable name="Y(218,10)" index="7387" value="1"/>
  <variable name="Y(239,15)" index="8106" value="1"/>
  <variable name="Y(244,16)" index="8277" value="1"/>
  <variable name="Y(245,16)" index="8311" value="1"/>
  <variable name="Y(253,16)" index="8583" value="1"/>
  <variable name="Y(259,3)" index="8774" value="1"/>
  <variable name="Y(268,12)" index="9089" value="1"/>
  <variable name="Y(271,15)" index="9194" value="1"/>
  <variable name="X(1,4,15)" index="9262" value="1"/>
  <variable name="X(1,8,55)" index="9574" value="1"/>
  <variable name="X(1,18,33)" index="9824" value="1"/>
  <variable name="X(2,10,28)" index="10091" value="1"/>
  <variable name="X(2,16,24)" index="10359" value="1"/>
  <variable name="X(2,19,130)" index="10737" value="1"/>
  <variable name="X(3,6,134)" index="11013" value="1"/>
  <variable name="X(3,8,33)" index="11184" value="1"/>
  <variable name="X(3,13,48)" index="11471" value="1"/>
  <variable name="X(3,20,259)" index="11954" value="1"/>
  <variable name="X(4,1,55)" index="12022" value="1"/>
  <variable name="X(4,10,13)" index="12252" value="1"/>
  <variable name="X(4,16,15)" index="12526" value="1"/>
  <variable name="X(4,21,196)" index="12979" value="1"/>
  <variable name="X(5,10,66)" index="13121" value="1"/>
  <variable name="X(5,13,76)" index="13403" value="1"/>
  <variable name="X(5,16,79)" index="13678" value="1"/>
  <variable name="X(5,22,197)" index="14068" value="1"/>
  <variable name="X(6,3,259)" index="14402" value="1"/>
  <variable name="X(6,7,199)" index="14614" value="1"/>
  <variable name="X(6,10,106)" index="14793" value="1"/>
  <variable name="X(6,13,108)" index="15067" value="1"/>
  <variable name="X(6,16,111)" index="15342" value="1"/>
  <variable name="X(6,23,134)" index="15637" value="1"/>
  <variable name="X(7,6,108)" index="15883" value="1"/>
  <variable name="X(7,24,199)" index="16246" value="1"/>
  <variable name="X(8,1,33)" index="16352" value="1"/>
  <variable name="X(8,3,134)" index="16725" value="1"/>
  <variable name="X(8,9,24)" index="16887" value="1"/>
  <variable name="X(8,13,122)" index="17257" value="1"/>
  <variable name="X(8,16,130)" index="17537" value="1"/>
  <variable name="X(8,25,55)" index="17734" value="1"/>
  <variable name="X(9,8,134)" index="18085" value="1"/>
  <variable name="X(9,26,24)" index="18247" value="1"/>
  <variable name="X(10,2,66)" index="18561" value="1"/>
  <variable name="X(10,4,196)" index="18963" value="1"/>
  <variable name="X(10,5,149)" index="19188" value="1"/>
  <variable name="X(10,6,167)" index="19478" value="1"/>
  <variable name="X(10,11,106)" index="19689" value="1"/>
  <variable name="X(10,12,268)" index="20123" value="1"/>
  <variable name="X(10,13,28)" index="20155" value="1"/>
  <variable name="X(10,15,13)" index="20412" value="1"/>
  <variable name="X(10,16,191)" index="20862" value="1"/>
  <variable name="X(10,27,218)" index="21161" value="1"/>
  <variable name="X(11,10,167)" index="21382" value="1"/>
  <variable name="X(11,13,168)" index="21655" value="1"/>
  <variable name="X(11,28,122)" index="21881" value="1"/>
  <variable name="X(12,10,191)" index="22222" value="1"/>
  <variable name="X(12,13,179)" index="22482" value="1"/>
  <variable name="X(12,29,268)" index="22843" value="1"/>
  <variable name="X(13,3,179)" index="23026" value="1"/>
  <variable name="X(13,5,197)" index="23316" value="1"/>
  <variable name="X(13,6,199)" index="23590" value="1"/>
  <variable name="X(13,8,216)" index="23879" value="1"/>
  <variable name="X(13,10,196)" index="24131" value="1"/>
  <variable name="X(13,11,122)" index="24329" value="1"/>
  <variable name="X(13,12,204)" index="24683" value="1"/>
  <variable name="X(13,15,206)" index="24957" value="1"/>
  <variable name="X(13,16,48)" index="25071" value="1"/>
  <variable name="X(13,30,28)" index="25323" value="1"/>
  <variable name="X(14,15,218)" index="25785" value="1"/>
  <variable name="X(14,31,13)" index="25852" value="1"/>
  <variable name="X(15,10,218)" index="26329" value="1"/>
  <variable name="X(15,13,216)" index="26599" value="1"/>
  <variable name="X(15,14,13)" index="26668" value="1"/>
  <variable name="X(15,16,239)" index="27166" value="1"/>
  <variable name="X(15,32,271)" index="27470" value="1"/>
  <variable name="X(16,2,130)" index="27601" value="1"/>
  <variable name="X(16,4,244)" index="27987" value="1"/>
  <variable name="X(16,5,245)" index="28260" value="1"/>
  <variable name="X(16,6,259)" index="28546" value="1"/>
  <variable name="X(16,8,24)" index="28583" value="1"/>
  <variable name="X(16,10,268)" index="29099" value="1"/>
  <variable name="X(16,13,253)" index="29356" value="1"/>
  <variable name="X(16,15,271)" index="29646" value="1"/>
  <variable name="X(16,17,48)" index="29695" value="1"/>
  <variable name="X(16,33,15)" index="29934" value="1"/>
  <variable name="X(17,16,271)" index="30462" value="1"/>
  <variable name="X(17,34,48)" index="30511" value="1"/>
  <variable name="C(13,10)" index="30779" value="1"/>
  <variable name="C(13,15)" index="30780" value="2"/>
  <variable name="C(13,14)" index="30781" value="3"/>
  <variable name="C(15,4)" index="30787" value="1"/>
  <variable name="C(15,16)" index="30788" value="2"/>
  <variable name="C(24,16)" index="30818" value="1"/>
  <variable name="C(24,8)" index="30819" value="2"/>
  <variable name="C(24,9)" index="30820" value="3"/>
  <variable name="C(28,10)" index="30830" value="1"/>
  <variable name="C(28,13)" index="30831" value="2"/>
  <variable name="C(33,8)" index="30845" value="1"/>
  <variable name="C(33,1)" index="30846" value="2"/>
  <variable name="C(48,13)" index="30890" value="1"/>
  <variable name="C(48,16)" index="30891" value="2"/>
  <variable name="C(48,17)" index="30892" value="3"/>
  <variable name="C(55,1)" index="30913" value="1"/>
  <variable name="C(55,8)" index="30914" value="2"/>
  <variable name="C(66,10)" index="30947" value="1"/>
  <variable name="C(106,10)" index="31073" value="1"/>
  <variable name="C(108,6)" index="31080" value="1"/>
  <variable name="C(122,13)" index="31124" value="1"/>
  <variable name="C(122,11)" index="31125" value="2"/>
  <variable name="C(130,16)" index="31148" value="1"/>
  <variable name="C(130,2)" index="31149" value="2"/>
  <variable name="C(134,8)" index="31162" value="1"/>
  <variable name="C(134,3)" index="31163" value="2"/>
  <variable name="C(134,6)" index="31164" value="3"/>
  <variable name="C(167,10)" index="31263" value="1"/>
  <variable name="C(179,13)" index="31302" value="1"/>
  <variable name="C(191,10)" index="31339" value="1"/>
  <variable name="C(196,10)" index="31354" value="1"/>
  <variable name="C(196,4)" index="31355" value="2"/>
  <variable name="C(197,5)" index="31357" value="1"/>
  <variable name="C(199,6)" index="31361" value="1"/>
  <variable name="C(199,7)" index="31362" value="2"/>
  <variable name="C(216,13)" index="31416" value="1"/>
  <variable name="C(218,15)" index="31424" value="1"/>
  <variable name="C(218,10)" index="31425" value="2"/>
  <variable name="C(245,16)" index="31503" value="3"/>
  <variable name="C(259,6)" index="31541" value="1"/>
  <variable name="C(259,3)" index="31542" value="2"/>
  <variable name="C(268,10)" index="31572" value="1"/>
  <variable name="C(268,12)" index="31573" value="2"/>
  <variable name="C(271,16)" index="31582" value="1"/>
  <variable name="C(271,15)" index="31583" value="2"/>
 </variables>
</CPLEXSolution>
